output ["V0 = ",show(V0),"\n","V1 = ",show(V1),"\n","V2 = ",show(V2),"\n","V3 = ",show(V3),"\n","V4 = ",show(V4),"\n","V5 = ",show(V5),"\n","V6 = ",show(V6),"\n","V7 = ",show(V7),"\n","V8 = ",show(V8),"\n","V9 = ",show(V9),"\n","V10 = ",show(V10),"\n","V11 = ",show(V11),"\n","V12 = ",show(V12),"\n","V13 = ",show(V13),"\n","V14 = ",show(V14),"\n","V15 = ",show(V15),"\n","V16 = ",show(V16),"\n","V17 = ",show(V17),"\n","V18 = ",show(V18),"\n","V19 = ",show(V19),"\n","V20 = ",show(V20),"\n","V21 = ",show(V21),"\n","V22 = ",show(V22),"\n","V23 = ",show(V23),"\n","V24 = ",show(V24),"\n","V25 = ",show(V25),"\n","V26 = ",show(V26),"\n","V27 = ",show(V27),"\n","V28 = ",show(V28),"\n","V29 = ",show(V29),"\n","V30 = ",show(V30),"\n","V31 = ",show(V31),"\n","V32 = ",show(V32),"\n","V33 = ",show(V33),"\n","V34 = ",show(V34),"\n","V35 = ",show(V35),"\n","V36 = ",show(V36),"\n","V37 = ",show(V37),"\n","V38 = ",show(V38),"\n","V39 = ",show(V39),"\n","V40 = ",show(V40),"\n","V41 = ",show(V41),"\n","V42 = ",show(V42),"\n","V43 = ",show(V43),"\n","V44 = ",show(V44),"\n","V45 = ",show(V45),"\n","V46 = ",show(V46),"\n","V47 = ",show(V47),"\n","V48 = ",show(V48),"\n","V49 = ",show(V49),"\n","V50 = ",show(V50),"\n","V51 = ",show(V51),"\n","V52 = ",show(V52),"\n","V53 = ",show(V53),"\n","V54 = ",show(V54),"\n","V55 = ",show(V55),"\n","V56 = ",show(V56),"\n","V57 = ",show(V57),"\n","V58 = ",show(V58),"\n","V59 = ",show(V59),"\n","V60 = ",show(V60),"\n","V61 = ",show(V61),"\n","V62 = ",show(V62),"\n","V63 = ",show(V63),"\n","V64 = ",show(V64),"\n","V65 = ",show(V65),"\n","V66 = ",show(V66),"\n","V67 = ",show(V67),"\n","V68 = ",show(V68),"\n","V69 = ",show(V69),"\n","V70 = ",show(V70),"\n","V71 = ",show(V71),"\n","V72 = ",show(V72),"\n","V73 = ",show(V73),"\n","V74 = ",show(V74),"\n","V75 = ",show(V75),"\n","V76 = ",show(V76),"\n","V77 = ",show(V77),"\n","V78 = ",show(V78),"\n","V79 = ",show(V79),"\n","V80 = ",show(V80),"\n","V81 = ",show(V81),"\n","V82 = ",show(V82),"\n","V83 = ",show(V83),"\n","V84 = ",show(V84),"\n","V85 = ",show(V85),"\n","V86 = ",show(V86),"\n","V87 = ",show(V87),"\n","V88 = ",show(V88),"\n","V89 = ",show(V89),"\n","V90 = ",show(V90),"\n","V91 = ",show(V91),"\n","V92 = ",show(V92),"\n","V93 = ",show(V93),"\n","V94 = ",show(V94),"\n","V95 = ",show(V95),"\n","V96 = ",show(V96),"\n","V97 = ",show(V97),"\n","V98 = ",show(V98),"\n","V99 = ",show(V99),"\n","V100 = ",show(V100),"\n","V101 = ",show(V101),"\n","V102 = ",show(V102),"\n","V103 = ",show(V103),"\n","V104 = ",show(V104),"\n","V105 = ",show(V105),"\n","V106 = ",show(V106),"\n","V107 = ",show(V107),"\n","V108 = ",show(V108),"\n","V109 = ",show(V109),"\n","V110 = ",show(V110),"\n","V111 = ",show(V111),"\n","V112 = ",show(V112),"\n","V113 = ",show(V113),"\n","V114 = ",show(V114),"\n","V115 = ",show(V115),"\n","V116 = ",show(V116),"\n","V117 = ",show(V117),"\n","V118 = ",show(V118),"\n","V119 = ",show(V119),"\n","V120 = ",show(V120),"\n","V121 = ",show(V121),"\n","V122 = ",show(V122),"\n","V123 = ",show(V123),"\n","V124 = ",show(V124),"\n","V125 = ",show(V125),"\n","V126 = ",show(V126),"\n","V127 = ",show(V127),"\n","V128 = ",show(V128),"\n","V129 = ",show(V129),"\n","V130 = ",show(V130),"\n","V131 = ",show(V131),"\n","V132 = ",show(V132),"\n","V133 = ",show(V133),"\n","V134 = ",show(V134),"\n","V135 = ",show(V135),"\n","V136 = ",show(V136),"\n","V137 = ",show(V137),"\n","V138 = ",show(V138),"\n","V139 = ",show(V139),"\n","V140 = ",show(V140),"\n","V141 = ",show(V141),"\n","V142 = ",show(V142),"\n","V143 = ",show(V143),"\n","V144 = ",show(V144),"\n","V145 = ",show(V145),"\n","V146 = ",show(V146),"\n","V147 = ",show(V147),"\n","V148 = ",show(V148),"\n","V149 = ",show(V149),"\n","V150 = ",show(V150),"\n","V151 = ",show(V151),"\n","V152 = ",show(V152),"\n","V153 = ",show(V153),"\n","V154 = ",show(V154),"\n","V155 = ",show(V155),"\n","V156 = ",show(V156),"\n","V157 = ",show(V157),"\n","V158 = ",show(V158),"\n","V159 = ",show(V159),"\n","V160 = ",show(V160),"\n","V161 = ",show(V161),"\n","V162 = ",show(V162),"\n","V163 = ",show(V163),"\n","V164 = ",show(V164),"\n","V165 = ",show(V165),"\n","V166 = ",show(V166),"\n","V167 = ",show(V167),"\n","V168 = ",show(V168),"\n","V169 = ",show(V169),"\n","V170 = ",show(V170),"\n","V171 = ",show(V171),"\n","V172 = ",show(V172),"\n","V173 = ",show(V173),"\n","V174 = ",show(V174),"\n","V175 = ",show(V175),"\n","V176 = ",show(V176),"\n","V177 = ",show(V177),"\n","V178 = ",show(V178),"\n","V179 = ",show(V179),"\n","V180 = ",show(V180),"\n","V181 = ",show(V181),"\n","V182 = ",show(V182),"\n","V183 = ",show(V183),"\n","V184 = ",show(V184),"\n","V185 = ",show(V185),"\n","V186 = ",show(V186),"\n","V187 = ",show(V187),"\n","V188 = ",show(V188),"\n","V189 = ",show(V189),"\n","V190 = ",show(V190),"\n","V191 = ",show(V191),"\n","V192 = ",show(V192),"\n","V193 = ",show(V193),"\n","V194 = ",show(V194),"\n","V195 = ",show(V195),"\n","V196 = ",show(V196),"\n","V197 = ",show(V197),"\n","V198 = ",show(V198),"\n","V199 = ",show(V199),"\n","V200 = ",show(V200),"\n","V201 = ",show(V201),"\n","V202 = ",show(V202),"\n","V203 = ",show(V203),"\n","V204 = ",show(V204),"\n","V205 = ",show(V205),"\n","V206 = ",show(V206),"\n","V207 = ",show(V207),"\n","V208 = ",show(V208),"\n","V209 = ",show(V209),"\n","V210 = ",show(V210),"\n","V211 = ",show(V211),"\n","V212 = ",show(V212),"\n","V213 = ",show(V213),"\n","V214 = ",show(V214),"\n","V215 = ",show(V215),"\n","V216 = ",show(V216),"\n","V217 = ",show(V217),"\n","V218 = ",show(V218),"\n","V219 = ",show(V219),"\n","V220 = ",show(V220),"\n","V221 = ",show(V221),"\n","V222 = ",show(V222),"\n","V223 = ",show(V223),"\n","V224 = ",show(V224),"\n","V225 = ",show(V225),"\n","V226 = ",show(V226),"\n","V227 = ",show(V227),"\n","V228 = ",show(V228),"\n","V229 = ",show(V229),"\n","V230 = ",show(V230),"\n","V231 = ",show(V231),"\n","V232 = ",show(V232),"\n","V233 = ",show(V233),"\n","V234 = ",show(V234),"\n","V235 = ",show(V235),"\n","V236 = ",show(V236),"\n","V237 = ",show(V237),"\n","V238 = ",show(V238),"\n","V239 = ",show(V239),"\n","V240 = ",show(V240),"\n","V241 = ",show(V241),"\n","V242 = ",show(V242),"\n","V243 = ",show(V243),"\n","V244 = ",show(V244),"\n","V245 = ",show(V245),"\n","V246 = ",show(V246),"\n","V247 = ",show(V247),"\n","V248 = ",show(V248),"\n","V249 = ",show(V249),"\n","V250 = ",show(V250),"\n","V251 = ",show(V251),"\n","V252 = ",show(V252),"\n","V253 = ",show(V253),"\n","V254 = ",show(V254),"\n","V255 = ",show(V255),"\n","V256 = ",show(V256),"\n","V257 = ",show(V257),"\n","V258 = ",show(V258),"\n","V259 = ",show(V259),"\n","V260 = ",show(V260),"\n","V261 = ",show(V261),"\n","V262 = ",show(V262),"\n","V263 = ",show(V263),"\n","V264 = ",show(V264),"\n","V265 = ",show(V265),"\n","V266 = ",show(V266),"\n","V267 = ",show(V267),"\n","V268 = ",show(V268),"\n","V269 = ",show(V269),"\n","V270 = ",show(V270),"\n","V271 = ",show(V271),"\n","V272 = ",show(V272),"\n","V273 = ",show(V273),"\n","V274 = ",show(V274),"\n","V275 = ",show(V275),"\n","V276 = ",show(V276),"\n","V277 = ",show(V277),"\n","V278 = ",show(V278),"\n","V279 = ",show(V279),"\n","V280 = ",show(V280),"\n","V281 = ",show(V281),"\n","V282 = ",show(V282),"\n","V283 = ",show(V283),"\n","V284 = ",show(V284),"\n","V285 = ",show(V285),"\n","V286 = ",show(V286),"\n","V287 = ",show(V287),"\n","V288 = ",show(V288),"\n","V289 = ",show(V289),"\n","V290 = ",show(V290),"\n","V291 = ",show(V291),"\n","V292 = ",show(V292),"\n","V293 = ",show(V293),"\n","V294 = ",show(V294),"\n","V295 = ",show(V295),"\n","V296 = ",show(V296),"\n","V297 = ",show(V297),"\n","V298 = ",show(V298),"\n","V299 = ",show(V299),"\n","V300 = ",show(V300),"\n","V301 = ",show(V301),"\n","V302 = ",show(V302),"\n","V303 = ",show(V303),"\n","V304 = ",show(V304),"\n","V305 = ",show(V305),"\n","V306 = ",show(V306),"\n","V307 = ",show(V307),"\n","V308 = ",show(V308),"\n","V309 = ",show(V309),"\n","V310 = ",show(V310),"\n","V311 = ",show(V311),"\n","V312 = ",show(V312),"\n","V313 = ",show(V313),"\n","V314 = ",show(V314),"\n","V315 = ",show(V315),"\n","V316 = ",show(V316),"\n","V317 = ",show(V317),"\n","V318 = ",show(V318),"\n","V319 = ",show(V319),"\n","V320 = ",show(V320),"\n","V321 = ",show(V321),"\n","V322 = ",show(V322),"\n","V323 = ",show(V323),"\n","V324 = ",show(V324),"\n","V325 = ",show(V325),"\n","V326 = ",show(V326),"\n","V327 = ",show(V327),"\n","V328 = ",show(V328),"\n","V329 = ",show(V329),"\n","V330 = ",show(V330),"\n","V331 = ",show(V331),"\n","V332 = ",show(V332),"\n","V333 = ",show(V333),"\n","V334 = ",show(V334),"\n","V335 = ",show(V335),"\n","V336 = ",show(V336),"\n","V337 = ",show(V337),"\n","V338 = ",show(V338),"\n","V339 = ",show(V339),"\n","V340 = ",show(V340),"\n","V341 = ",show(V341),"\n","V342 = ",show(V342),"\n","V343 = ",show(V343),"\n","V344 = ",show(V344),"\n","V345 = ",show(V345),"\n","V346 = ",show(V346),"\n","V347 = ",show(V347),"\n","V348 = ",show(V348),"\n","V349 = ",show(V349),"\n","V350 = ",show(V350),"\n","V351 = ",show(V351),"\n","V352 = ",show(V352),"\n","V353 = ",show(V353),"\n","V354 = ",show(V354),"\n","V355 = ",show(V355),"\n","V356 = ",show(V356),"\n","V357 = ",show(V357),"\n","V358 = ",show(V358),"\n","V359 = ",show(V359),"\n","V360 = ",show(V360),"\n","V361 = ",show(V361),"\n","V362 = ",show(V362),"\n","V363 = ",show(V363),"\n","V364 = ",show(V364),"\n","V365 = ",show(V365),"\n","V366 = ",show(V366),"\n","V367 = ",show(V367),"\n","V368 = ",show(V368),"\n","V369 = ",show(V369),"\n","V370 = ",show(V370),"\n","V371 = ",show(V371),"\n","V372 = ",show(V372),"\n","V373 = ",show(V373),"\n","V374 = ",show(V374),"\n","V375 = ",show(V375),"\n","V376 = ",show(V376),"\n","V377 = ",show(V377),"\n","V378 = ",show(V378),"\n","V379 = ",show(V379),"\n","V380 = ",show(V380),"\n","V381 = ",show(V381),"\n","V382 = ",show(V382),"\n","V383 = ",show(V383),"\n","V384 = ",show(V384),"\n","V385 = ",show(V385),"\n","V386 = ",show(V386),"\n","V387 = ",show(V387),"\n","V388 = ",show(V388),"\n","V389 = ",show(V389),"\n","V390 = ",show(V390),"\n","V391 = ",show(V391),"\n","V392 = ",show(V392),"\n","V393 = ",show(V393),"\n","V394 = ",show(V394),"\n","V395 = ",show(V395),"\n","V396 = ",show(V396),"\n","V397 = ",show(V397),"\n","V398 = ",show(V398),"\n","V399 = ",show(V399),"\n","V400 = ",show(V400),"\n","V401 = ",show(V401),"\n","V402 = ",show(V402),"\n","V403 = ",show(V403),"\n","V404 = ",show(V404),"\n","V405 = ",show(V405),"\n","V406 = ",show(V406),"\n","V407 = ",show(V407),"\n","V408 = ",show(V408),"\n","V409 = ",show(V409),"\n","V410 = ",show(V410),"\n","V411 = ",show(V411),"\n","V412 = ",show(V412),"\n","V413 = ",show(V413),"\n","V414 = ",show(V414),"\n","V415 = ",show(V415),"\n","V416 = ",show(V416),"\n","V417 = ",show(V417),"\n","V418 = ",show(V418),"\n","V419 = ",show(V419),"\n","V420 = ",show(V420),"\n","V421 = ",show(V421),"\n","V422 = ",show(V422),"\n","V423 = ",show(V423),"\n","V424 = ",show(V424),"\n","V425 = ",show(V425),"\n","V426 = ",show(V426),"\n","V427 = ",show(V427),"\n","V428 = ",show(V428),"\n","V429 = ",show(V429),"\n","V430 = ",show(V430),"\n","V431 = ",show(V431),"\n","V432 = ",show(V432),"\n","V433 = ",show(V433),"\n","V434 = ",show(V434),"\n","V435 = ",show(V435),"\n","V436 = ",show(V436),"\n","V437 = ",show(V437),"\n","V438 = ",show(V438),"\n","V439 = ",show(V439),"\n","V440 = ",show(V440),"\n","V441 = ",show(V441),"\n","V442 = ",show(V442),"\n","V443 = ",show(V443),"\n","V444 = ",show(V444),"\n","V445 = ",show(V445),"\n","V446 = ",show(V446),"\n","V447 = ",show(V447),"\n","V448 = ",show(V448),"\n","V449 = ",show(V449),"\n","V450 = ",show(V450),"\n","V451 = ",show(V451),"\n","V452 = ",show(V452),"\n","V453 = ",show(V453),"\n","V454 = ",show(V454),"\n","V455 = ",show(V455),"\n","V456 = ",show(V456),"\n","V457 = ",show(V457),"\n","V458 = ",show(V458),"\n","V459 = ",show(V459),"\n","V460 = ",show(V460),"\n","V461 = ",show(V461),"\n","V462 = ",show(V462),"\n","V463 = ",show(V463),"\n","V464 = ",show(V464),"\n","V465 = ",show(V465),"\n","V466 = ",show(V466),"\n","V467 = ",show(V467),"\n","V468 = ",show(V468),"\n","V469 = ",show(V469),"\n","V470 = ",show(V470),"\n","V471 = ",show(V471),"\n","V472 = ",show(V472),"\n","V473 = ",show(V473),"\n","V474 = ",show(V474),"\n","V475 = ",show(V475),"\n","V476 = ",show(V476),"\n","V477 = ",show(V477),"\n","V478 = ",show(V478),"\n","V479 = ",show(V479),"\n","V480 = ",show(V480),"\n","V481 = ",show(V481),"\n","V482 = ",show(V482),"\n","V483 = ",show(V483),"\n","V484 = ",show(V484),"\n","V485 = ",show(V485),"\n","V486 = ",show(V486),"\n","V487 = ",show(V487),"\n","V488 = ",show(V488),"\n","V489 = ",show(V489),"\n","V490 = ",show(V490),"\n","V491 = ",show(V491),"\n","V492 = ",show(V492),"\n","V493 = ",show(V493),"\n","V494 = ",show(V494),"\n","V495 = ",show(V495),"\n","V496 = ",show(V496),"\n","V497 = ",show(V497),"\n","V498 = ",show(V498),"\n","V499 = ",show(V499),"\n","V500 = ",show(V500),"\n","V501 = ",show(V501),"\n","V502 = ",show(V502),"\n","V503 = ",show(V503),"\n","V504 = ",show(V504),"\n","V505 = ",show(V505),"\n","V506 = ",show(V506),"\n","V507 = ",show(V507),"\n","V508 = ",show(V508),"\n","V509 = ",show(V509),"\n","V510 = ",show(V510),"\n","V511 = ",show(V511),"\n","V512 = ",show(V512),"\n","V513 = ",show(V513),"\n","V514 = ",show(V514),"\n","V515 = ",show(V515),"\n","V516 = ",show(V516),"\n","V517 = ",show(V517),"\n","V518 = ",show(V518),"\n","V519 = ",show(V519),"\n","V520 = ",show(V520),"\n","V521 = ",show(V521),"\n","V522 = ",show(V522),"\n","V523 = ",show(V523),"\n","V524 = ",show(V524),"\n","V525 = ",show(V525),"\n","V526 = ",show(V526),"\n","V527 = ",show(V527),"\n","V528 = ",show(V528),"\n","V529 = ",show(V529),"\n","V530 = ",show(V530),"\n","V531 = ",show(V531),"\n","V532 = ",show(V532),"\n","V533 = ",show(V533),"\n","V534 = ",show(V534),"\n","V535 = ",show(V535),"\n","V536 = ",show(V536),"\n","V537 = ",show(V537),"\n","V538 = ",show(V538),"\n","V539 = ",show(V539),"\n","V540 = ",show(V540),"\n","V541 = ",show(V541),"\n","V542 = ",show(V542),"\n","V543 = ",show(V543),"\n","V544 = ",show(V544),"\n","V545 = ",show(V545),"\n","V546 = ",show(V546),"\n","V547 = ",show(V547),"\n","V548 = ",show(V548),"\n","V549 = ",show(V549),"\n","V550 = ",show(V550),"\n","V551 = ",show(V551),"\n","V552 = ",show(V552),"\n","V553 = ",show(V553),"\n","V554 = ",show(V554),"\n","V555 = ",show(V555),"\n","V556 = ",show(V556),"\n","V557 = ",show(V557),"\n","V558 = ",show(V558),"\n","V559 = ",show(V559),"\n","V560 = ",show(V560),"\n","V561 = ",show(V561),"\n","V562 = ",show(V562),"\n","V563 = ",show(V563),"\n","V564 = ",show(V564),"\n","V565 = ",show(V565),"\n","V566 = ",show(V566),"\n","V567 = ",show(V567),"\n","V568 = ",show(V568),"\n","V569 = ",show(V569),"\n","V570 = ",show(V570),"\n","V571 = ",show(V571),"\n","V572 = ",show(V572),"\n","V573 = ",show(V573),"\n","V574 = ",show(V574),"\n","V575 = ",show(V575),"\n","V576 = ",show(V576),"\n","V577 = ",show(V577),"\n","V578 = ",show(V578),"\n","V579 = ",show(V579),"\n","V580 = ",show(V580),"\n","V581 = ",show(V581),"\n","V582 = ",show(V582),"\n","V583 = ",show(V583),"\n","V584 = ",show(V584),"\n","V585 = ",show(V585),"\n","V586 = ",show(V586),"\n","V587 = ",show(V587),"\n","V588 = ",show(V588),"\n","V589 = ",show(V589),"\n","V590 = ",show(V590),"\n","V591 = ",show(V591),"\n","V592 = ",show(V592),"\n","V593 = ",show(V593),"\n","V594 = ",show(V594),"\n","V595 = ",show(V595),"\n","V596 = ",show(V596),"\n","V597 = ",show(V597),"\n","V598 = ",show(V598),"\n","V599 = ",show(V599),"\n","V600 = ",show(V600),"\n","V601 = ",show(V601),"\n","V602 = ",show(V602),"\n","V603 = ",show(V603),"\n","V604 = ",show(V604),"\n","V605 = ",show(V605),"\n","V606 = ",show(V606),"\n","V607 = ",show(V607),"\n","V608 = ",show(V608),"\n","V609 = ",show(V609),"\n","V610 = ",show(V610),"\n","V611 = ",show(V611),"\n","V612 = ",show(V612),"\n","V613 = ",show(V613),"\n","V614 = ",show(V614),"\n","V615 = ",show(V615),"\n","V616 = ",show(V616),"\n","V617 = ",show(V617),"\n","V618 = ",show(V618),"\n","V619 = ",show(V619),"\n","V620 = ",show(V620),"\n","V621 = ",show(V621),"\n","V622 = ",show(V622),"\n","V623 = ",show(V623),"\n","V624 = ",show(V624),"\n","V625 = ",show(V625),"\n","V626 = ",show(V626),"\n","V627 = ",show(V627),"\n","V628 = ",show(V628),"\n","V629 = ",show(V629),"\n","V630 = ",show(V630),"\n","V631 = ",show(V631),"\n","V632 = ",show(V632),"\n","V633 = ",show(V633),"\n","V634 = ",show(V634),"\n","V635 = ",show(V635),"\n","V636 = ",show(V636),"\n","V637 = ",show(V637),"\n","V638 = ",show(V638),"\n","V639 = ",show(V639),"\n"];
int: V0;
int: V1;
int: V2;
int: V3;
int: V4;
int: V5;
int: V6;
int: V7;
int: V8;
int: V9;
int: V10;
int: V11;
int: V12;
int: V13;
int: V14;
int: V15;
int: V16;
int: V17;
int: V18;
int: V19;
int: V20;
int: V21;
int: V22;
int: V23;
int: V24;
int: V25;
int: V26;
int: V27;
int: V28;
int: V29;
int: V30;
int: V31;
int: V32;
int: V33;
int: V34;
int: V35;
int: V36;
int: V37;
int: V38;
int: V39;
int: V40;
int: V41;
int: V42;
int: V43;
int: V44;
int: V45;
int: V46;
int: V47;
int: V48;
int: V49;
int: V50;
int: V51;
int: V52;
int: V53;
int: V54;
int: V55;
int: V56;
int: V57;
int: V58;
int: V59;
int: V60;
int: V61;
int: V62;
int: V63;
int: V64;
int: V65;
int: V66;
int: V67;
int: V68;
int: V69;
int: V70;
int: V71;
int: V72;
int: V73;
int: V74;
int: V75;
int: V76;
int: V77;
int: V78;
int: V79;
int: V80;
int: V81;
int: V82;
int: V83;
int: V84;
int: V85;
int: V86;
int: V87;
int: V88;
int: V89;
int: V90;
int: V91;
int: V92;
int: V93;
int: V94;
int: V95;
int: V96;
int: V97;
int: V98;
int: V99;
int: V100;
int: V101;
int: V102;
int: V103;
int: V104;
int: V105;
int: V106;
int: V107;
int: V108;
int: V109;
int: V110;
int: V111;
int: V112;
int: V113;
int: V114;
int: V115;
int: V116;
int: V117;
int: V118;
int: V119;
int: V120;
int: V121;
int: V122;
int: V123;
int: V124;
int: V125;
int: V126;
int: V127;
int: V128;
int: V129;
int: V130;
int: V131;
int: V132;
int: V133;
int: V134;
int: V135;
int: V136;
int: V137;
int: V138;
int: V139;
int: V140;
int: V141;
int: V142;
int: V143;
int: V144;
int: V145;
int: V146;
int: V147;
int: V148;
int: V149;
int: V150;
int: V151;
int: V152;
int: V153;
int: V154;
int: V155;
int: V156;
int: V157;
int: V158;
int: V159;
int: V160;
int: V161;
int: V162;
int: V163;
int: V164;
int: V165;
int: V166;
int: V167;
int: V168;
int: V169;
int: V170;
int: V171;
int: V172;
int: V173;
int: V174;
int: V175;
int: V176;
int: V177;
int: V178;
int: V179;
int: V180;
int: V181;
int: V182;
int: V183;
int: V184;
int: V185;
int: V186;
int: V187;
int: V188;
int: V189;
int: V190;
int: V191;
int: V192;
int: V193;
int: V194;
int: V195;
int: V196;
int: V197;
int: V198;
int: V199;
int: V200;
int: V201;
int: V202;
int: V203;
int: V204;
int: V205;
int: V206;
int: V207;
int: V208;
int: V209;
int: V210;
int: V211;
int: V212;
int: V213;
int: V214;
int: V215;
int: V216;
int: V217;
int: V218;
int: V219;
int: V220;
int: V221;
int: V222;
int: V223;
int: V224;
int: V225;
int: V226;
int: V227;
int: V228;
int: V229;
int: V230;
int: V231;
int: V232;
int: V233;
int: V234;
int: V235;
int: V236;
int: V237;
int: V238;
int: V239;
int: V240;
int: V241;
int: V242;
int: V243;
int: V244;
int: V245;
int: V246;
int: V247;
int: V248;
int: V249;
int: V250;
int: V251;
int: V252;
int: V253;
int: V254;
int: V255;
int: V256;
int: V257;
int: V258;
int: V259;
int: V260;
int: V261;
int: V262;
int: V263;
int: V264;
int: V265;
int: V266;
int: V267;
int: V268;
int: V269;
int: V270;
int: V271;
int: V272;
int: V273;
int: V274;
int: V275;
int: V276;
int: V277;
int: V278;
int: V279;
int: V280;
int: V281;
int: V282;
int: V283;
int: V284;
int: V285;
int: V286;
int: V287;
int: V288;
int: V289;
int: V290;
int: V291;
int: V292;
int: V293;
int: V294;
int: V295;
int: V296;
int: V297;
int: V298;
int: V299;
int: V300;
int: V301;
int: V302;
int: V303;
int: V304;
int: V305;
int: V306;
int: V307;
int: V308;
int: V309;
int: V310;
int: V311;
int: V312;
int: V313;
int: V314;
int: V315;
int: V316;
int: V317;
int: V318;
int: V319;
int: V320;
int: V321;
int: V322;
int: V323;
int: V324;
int: V325;
int: V326;
int: V327;
int: V328;
int: V329;
int: V330;
int: V331;
int: V332;
int: V333;
int: V334;
int: V335;
int: V336;
int: V337;
int: V338;
int: V339;
int: V340;
int: V341;
int: V342;
int: V343;
int: V344;
int: V345;
int: V346;
int: V347;
int: V348;
int: V349;
int: V350;
int: V351;
int: V352;
int: V353;
int: V354;
int: V355;
int: V356;
int: V357;
int: V358;
int: V359;
int: V360;
int: V361;
int: V362;
int: V363;
int: V364;
int: V365;
int: V366;
int: V367;
int: V368;
int: V369;
int: V370;
int: V371;
int: V372;
int: V373;
int: V374;
int: V375;
int: V376;
int: V377;
int: V378;
int: V379;
int: V380;
int: V381;
int: V382;
int: V383;
int: V384;
int: V385;
int: V386;
int: V387;
int: V388;
int: V389;
int: V390;
int: V391;
int: V392;
int: V393;
int: V394;
int: V395;
int: V396;
int: V397;
int: V398;
int: V399;
int: V400;
int: V401;
int: V402;
int: V403;
int: V404;
int: V405;
int: V406;
int: V407;
int: V408;
int: V409;
int: V410;
int: V411;
int: V412;
int: V413;
int: V414;
int: V415;
int: V416;
int: V417;
int: V418;
int: V419;
int: V420;
int: V421;
int: V422;
int: V423;
int: V424;
int: V425;
int: V426;
int: V427;
int: V428;
int: V429;
int: V430;
int: V431;
int: V432;
int: V433;
int: V434;
int: V435;
int: V436;
int: V437;
int: V438;
int: V439;
int: V440;
int: V441;
int: V442;
int: V443;
int: V444;
int: V445;
int: V446;
int: V447;
int: V448;
int: V449;
int: V450;
int: V451;
int: V452;
int: V453;
int: V454;
int: V455;
int: V456;
int: V457;
int: V458;
int: V459;
int: V460;
int: V461;
int: V462;
int: V463;
int: V464;
int: V465;
int: V466;
int: V467;
int: V468;
int: V469;
int: V470;
int: V471;
int: V472;
int: V473;
int: V474;
int: V475;
int: V476;
int: V477;
int: V478;
int: V479;
int: V480;
int: V481;
int: V482;
int: V483;
int: V484;
int: V485;
int: V486;
int: V487;
int: V488;
int: V489;
int: V490;
int: V491;
int: V492;
int: V493;
int: V494;
int: V495;
int: V496;
int: V497;
int: V498;
int: V499;
int: V500;
int: V501;
int: V502;
int: V503;
int: V504;
int: V505;
int: V506;
int: V507;
int: V508;
int: V509;
int: V510;
int: V511;
int: V512;
int: V513;
int: V514;
int: V515;
int: V516;
int: V517;
int: V518;
int: V519;
int: V520;
int: V521;
int: V522;
int: V523;
int: V524;
int: V525;
int: V526;
int: V527;
int: V528;
int: V529;
int: V530;
int: V531;
int: V532;
int: V533;
int: V534;
int: V535;
int: V536;
int: V537;
int: V538;
int: V539;
int: V540;
int: V541;
int: V542;
int: V543;
int: V544;
int: V545;
int: V546;
int: V547;
int: V548;
int: V549;
int: V550;
int: V551;
int: V552;
int: V553;
int: V554;
int: V555;
int: V556;
int: V557;
int: V558;
int: V559;
int: V560;
int: V561;
int: V562;
int: V563;
int: V564;
int: V565;
int: V566;
int: V567;
int: V568;
int: V569;
int: V570;
int: V571;
int: V572;
int: V573;
int: V574;
int: V575;
int: V576;
int: V577;
int: V578;
int: V579;
int: V580;
int: V581;
int: V582;
int: V583;
int: V584;
int: V585;
int: V586;
int: V587;
int: V588;
int: V589;
int: V590;
int: V591;
int: V592;
int: V593;
int: V594;
int: V595;
int: V596;
int: V597;
int: V598;
int: V599;
int: V600;
int: V601;
int: V602;
int: V603;
int: V604;
int: V605;
int: V606;
int: V607;
int: V608;
int: V609;
int: V610;
int: V611;
int: V612;
int: V613;
int: V614;
int: V615;
int: V616;
int: V617;
int: V618;
int: V619;
int: V620;
int: V621;
int: V622;
int: V623;
int: V624;
int: V625;
int: V626;
int: V627;
int: V628;
int: V629;
int: V630;
int: V631;
int: V632;
int: V633;
int: V634;
int: V635;
int: V636;
int: V637;
int: V638;
int: V639;
